p edge 217 2447
v 1 322
v 2 248
v 3 626
v 4 683
v 5 516
v 6 424
v 7 636
v 8 510
v 9 543
v 10 288
v 11 538
v 12 367
v 13 412
v 14 323
v 15 541
v 16 445
v 17 201
v 18 275
v 19 684
v 20 305
v 21 359
v 22 558
v 23 344
v 24 252
v 25 275
v 26 278
v 27 640
v 28 250
v 29 219
v 30 557
v 31 341
v 32 680
v 33 373
v 34 324
v 35 417
v 36 342
v 37 432
v 38 350
v 39 300
v 40 493
v 41 272
v 42 460
v 43 676
v 44 307
v 45 643
v 46 366
v 47 701
v 48 526
v 49 475
v 50 347
v 51 570
v 52 607
v 53 322
v 54 667
v 55 697
v 56 559
v 57 501
v 58 587
v 59 457
v 60 282
v 61 576
v 62 212
v 63 608
v 64 664
v 65 390
v 66 290
v 67 606
v 68 438
v 69 524
v 70 206
v 71 373
v 72 625
v 73 268
v 74 618
v 75 553
v 76 630
v 77 228
v 78 400
v 79 349
v 80 662
v 81 303
v 82 324
v 83 312
v 84 560
v 85 644
v 86 451
v 87 258
v 88 257
v 89 373
v 90 282
v 91 605
v 92 622
v 93 461
v 94 633
v 95 570
v 96 217
v 97 548
v 98 515
v 99 207
v 100 393
v 101 294
v 102 330
v 103 642
v 104 561
v 105 333
v 106 432
v 107 403
v 108 619
v 109 446
v 110 412
v 111 619
v 112 454
v 113 568
v 114 404
v 115 217
v 116 704
v 117 264
v 118 619
v 119 303
v 120 518
v 121 415
v 122 685
v 123 362
v 124 316
v 125 339
v 126 674
v 127 540
v 128 634
v 129 640
v 130 521
v 131 672
v 132 449
v 133 510
v 134 482
v 135 511
v 136 286
v 137 520
v 138 585
v 139 387
v 140 595
v 141 224
v 142 353
v 143 531
v 144 351
v 145 451
v 146 368
v 147 396
v 148 510
v 149 523
v 150 638
v 151 659
v 152 585
v 153 614
v 154 244
v 155 669
v 156 294
v 157 303
v 158 557
v 159 412
v 160 357
v 161 659
v 162 639
v 163 260
v 164 261
v 165 415
v 166 370
v 167 403
v 168 250
v 169 326
v 170 548
v 171 580
v 172 251
v 173 309
v 174 477
v 175 240
v 176 515
v 177 462
v 178 671
v 179 380
v 180 235
v 181 600
v 182 501
v 183 702
v 184 311
v 185 478
v 186 645
v 187 538
v 188 628
v 189 298
v 190 283
v 191 644
v 192 592
v 193 613
v 194 251
v 195 613
v 196 390
v 197 233
v 198 494
v 199 253
v 200 494
v 201 334
v 202 349
v 203 656
v 204 260
v 205 202
v 206 505
v 207 440
v 208 553
v 209 379
v 210 583
v 211 369
v 212 339
v 213 219
v 214 433
v 215 303
v 216 625
v 217 663
e 1 2
e 1 3
e 1 4
e 1 5
e 1 6
e 1 7
e 1 8
e 1 9
e 1 10
e 1 11
e 1 12
e 1 24
e 1 48
e 1 58
e 1 68
e 1 80
e 1 91
e 1 105
e 1 115
e 1 127
e 1 140
e 1 154
e 1 179
e 1 206
e 2 3
e 2 4
e 2 5
e 2 6
e 2 7
e 2 8
e 2 9
e 2 10
e 2 11
e 2 25
e 2 36
e 2 59
e 2 106
e 2 116
e 2 128
e 2 141
e 2 166
e 2 180
e 2 195
e 3 4
e 3 5
e 3 6
e 3 7
e 3 8
e 3 9
e 3 10
e 3 11
e 3 13
e 3 26
e 3 37
e 3 49
e 3 69
e 3 81
e 3 107
e 3 129
e 3 142
e 3 167
e 3 207
e 4 5
e 4 6
e 4 7
e 4 8
e 4 9
e 4 10
e 4 11
e 4 14
e 4 38
e 4 61
e 4 71
e 4 83
e 4 93
e 4 118
e 4 130
e 4 156
e 4 168
e 4 182
e 4 197
e 5 6
e 5 7
e 5 8
e 5 9
e 5 10
e 5 11
e 5 15
e 5 39
e 5 72
e 5 94
e 5 109
e 5 119
e 5 144
e 5 183
e 5 198
e 6 7
e 6 8
e 6 9
e 6 10
e 6 11
e 6 16
e 6 28
e 6 50
e 6 84
e 6 95
e 6 110
e 6 120
e 6 131
e 6 145
e 6 157
e 6 169
e 6 184
e 6 199
e 7 8
e 7 9
e 7 10
e 7 11
e 7 18
e 7 41
e 7 52
e 7 74
e 7 97
e 7 132
e 7 146
e 7 158
e 7 186
e 7 200
e 8 9
e 8 10
e 8 11
e 8 31
e 8 42
e 8 63
e 8 76
e 8 86
e 8 99
e 8 134
e 8 148
e 8 160
e 8 188
e 8 210
e 9 10
e 9 11
e 9 43
e 9 87
e 9 100
e 9 123
e 9 135
e 9 161
e 9 172
e 9 189
e 9 201
e 9 211
e 10 11
e 10 79
e 10 89
e 10 104
e 10 112
e 10 138
e 10 152
e 10 164
e 10 176
e 10 193
e 10 215
e 11 22
e 11 56
e 11 66
e 11 113
e 11 126
e 11 177
e 11 216
e 12 13
e 12 14
e 12 15
e 12 16
e 12 17
e 12 18
e 12 19
e 12 20
e 12 21
e 12 22
e 12 23
e 12 24
e 12 48
e 12 58
e 12 68
e 12 80
e 12 91
e 12 105
e 12 115
e 12 127
e 12 140
e 12 154
e 12 179
e 12 206
e 13 14
e 13 15
e 13 16
e 13 17
e 13 18
e 13 19
e 13 20
e 13 21
e 13 22
e 13 23
e 13 26
e 13 37
e 13 49
e 13 69
e 13 81
e 13 107
e 13 129
e 13 142
e 13 167
e 13 207
e 14 15
e 14 16
e 14 17
e 14 18
e 14 19
e 14 20
e 14 21
e 14 22
e 14 23
e 14 38
e 14 61
e 14 71
e 14 83
e 14 93
e 14 118
e 14 130
e 14 156
e 14 168
e 14 182
e 14 197
e 15 16
e 15 17
e 15 18
e 15 19
e 15 20
e 15 21
e 15 22
e 15 23
e 15 39
e 15 72
e 15 94
e 15 109
e 15 119
e 15 144
e 15 183
e 15 198
e 16 17
e 16 18
e 16 19
e 16 20
e 16 21
e 16 22
e 16 23
e 16 28
e 16 50
e 16 84
e 16 95
e 16 110
e 16 120
e 16 131
e 16 145
e 16 157
e 16 169
e 16 184
e 16 199
e 17 18
e 17 19
e 17 20
e 17 21
e 17 22
e 17 23
e 17 29
e 17 40
e 17 51
e 17 73
e 17 85
e 17 96
e 17 121
e 17 170
e 17 185
e 18 19
e 18 20
e 18 21
e 18 22
e 18 23
e 18 41
e 18 52
e 18 74
e 18 97
e 18 132
e 18 146
e 18 158
e 18 186
e 18 200
e 19 20
e 19 21
e 19 22
e 19 23
e 19 30
e 19 53
e 19 62
e 19 75
e 19 98
e 19 122
e 19 133
e 19 147
e 19 159
e 19 171
e 19 187
e 19 209
e 20 21
e 20 22
e 20 23
e 20 33
e 20 45
e 20 65
e 20 102
e 20 125
e 20 150
e 20 162
e 20 174
e 20 191
e 20 203
e 20 213
e 21 22
e 21 23
e 21 34
e 21 46
e 21 55
e 21 78
e 21 88
e 21 103
e 21 137
e 21 151
e 21 163
e 21 175
e 21 192
e 21 204
e 21 214
e 22 23
e 22 56
e 22 66
e 22 113
e 22 126
e 22 177
e 22 216
e 23 35
e 23 47
e 23 57
e 23 67
e 23 90
e 23 114
e 23 139
e 23 153
e 23 165
e 23 178
e 23 194
e 23 205
e 23 217
e 24 25
e 24 26
e 24 27
e 24 28
e 24 29
e 24 30
e 24 31
e 24 32
e 24 33
e 24 34
e 24 35
e 24 48
e 24 58
e 24 68
e 24 80
e 24 91
e 24 105
e 24 115
e 24 127
e 24 140
e 24 154
e 24 179
e 24 206
e 25 26
e 25 27
e 25 28
e 25 29
e 25 30
e 25 31
e 25 32
e 25 33
e 25 34
e 25 35
e 25 36
e 25 59
e 25 106
e 25 116
e 25 128
e 25 141
e 25 166
e 25 180
e 25 195
e 26 27
e 26 28
e 26 29
e 26 30
e 26 31
e 26 32
e 26 33
e 26 34
e 26 35
e 26 37
e 26 49
e 26 69
e 26 81
e 26 107
e 26 129
e 26 142
e 26 167
e 26 207
e 27 28
e 27 29
e 27 30
e 27 31
e 27 32
e 27 33
e 27 34
e 27 35
e 27 60
e 27 70
e 27 82
e 27 92
e 27 108
e 27 117
e 27 143
e 27 155
e 27 181
e 27 196
e 27 208
e 28 29
e 28 30
e 28 31
e 28 32
e 28 33
e 28 34
e 28 35
e 28 50
e 28 84
e 28 95
e 28 110
e 28 120
e 28 131
e 28 145
e 28 157
e 28 169
e 28 184
e 28 199
e 29 30
e 29 31
e 29 32
e 29 33
e 29 34
e 29 35
e 29 40
e 29 51
e 29 73
e 29 85
e 29 96
e 29 121
e 29 170
e 29 185
e 30 31
e 30 32
e 30 33
e 30 34
e 30 35
e 30 53
e 30 62
e 30 75
e 30 98
e 30 122
e 30 133
e 30 147
e 30 159
e 30 171
e 30 187
e 30 209
e 31 32
e 31 33
e 31 34
e 31 35
e 31 42
e 31 63
e 31 76
e 31 86
e 31 99
e 31 134
e 31 148
e 31 160
e 31 188
e 31 210
e 32 33
e 32 34
e 32 35
e 32 44
e 32 54
e 32 64
e 32 77
e 32 101
e 32 111
e 32 124
e 32 136
e 32 149
e 32 173
e 32 190
e 32 202
e 32 212
e 33 34
e 33 35
e 33 45
e 33 65
e 33 102
e 33 125
e 33 150
e 33 162
e 33 174
e 33 191
e 33 203
e 33 213
e 34 35
e 34 46
e 34 55
e 34 78
e 34 88
e 34 103
e 34 137
e 34 151
e 34 163
e 34 175
e 34 192
e 34 204
e 34 214
e 35 47
e 35 57
e 35 67
e 35 90
e 35 114
e 35 139
e 35 153
e 35 165
e 35 178
e 35 194
e 35 205
e 35 217
e 36 37
e 36 38
e 36 39
e 36 40
e 36 41
e 36 42
e 36 43
e 36 44
e 36 45
e 36 46
e 36 47
e 36 59
e 36 106
e 36 116
e 36 128
e 36 141
e 36 166
e 36 180
e 36 195
e 37 38
e 37 39
e 37 40
e 37 41
e 37 42
e 37 43
e 37 44
e 37 45
e 37 46
e 37 47
e 37 49
e 37 69
e 37 81
e 37 107
e 37 129
e 37 142
e 37 167
e 37 207
e 38 39
e 38 40
e 38 41
e 38 42
e 38 43
e 38 44
e 38 45
e 38 46
e 38 47
e 38 61
e 38 71
e 38 83
e 38 93
e 38 118
e 38 130
e 38 156
e 38 168
e 38 182
e 38 197
e 39 40
e 39 41
e 39 42
e 39 43
e 39 44
e 39 45
e 39 46
e 39 47
e 39 72
e 39 94
e 39 109
e 39 119
e 39 144
e 39 183
e 39 198
e 40 41
e 40 42
e 40 43
e 40 44
e 40 45
e 40 46
e 40 47
e 40 51
e 40 73
e 40 85
e 40 96
e 40 121
e 40 170
e 40 185
e 41 42
e 41 43
e 41 44
e 41 45
e 41 46
e 41 47
e 41 52
e 41 74
e 41 97
e 41 132
e 41 146
e 41 158
e 41 186
e 41 200
e 42 43
e 42 44
e 42 45
e 42 46
e 42 47
e 42 63
e 42 76
e 42 86
e 42 99
e 42 134
e 42 148
e 42 160
e 42 188
e 42 210
e 43 44
e 43 45
e 43 46
e 43 47
e 43 87
e 43 100
e 43 123
e 43 135
e 43 161
e 43 172
e 43 189
e 43 201
e 43 211
e 44 45
e 44 46
e 44 47
e 44 54
e 44 64
e 44 77
e 44 101
e 44 111
e 44 124
e 44 136
e 44 149
e 44 173
e 44 190
e 44 202
e 44 212
e 45 46
e 45 47
e 45 65
e 45 102
e 45 125
e 45 150
e 45 162
e 45 174
e 45 191
e 45 203
e 45 213
e 46 47
e 46 55
e 46 78
e 46 88
e 46 103
e 46 137
e 46 151
e 46 163
e 46 175
e 46 192
e 46 204
e 46 214
e 47 57
e 47 67
e 47 90
e 47 114
e 47 139
e 47 153
e 47 165
e 47 178
e 47 194
e 47 205
e 47 217
e 48 49
e 48 50
e 48 51
e 48 52
e 48 53
e 48 54
e 48 55
e 48 56
e 48 57
e 48 58
e 48 68
e 48 80
e 48 91
e 48 105
e 48 115
e 48 127
e 48 140
e 48 154
e 48 179
e 48 206
e 49 50
e 49 51
e 49 52
e 49 53
e 49 54
e 49 55
e 49 56
e 49 57
e 49 69
e 49 81
e 49 107
e 49 129
e 49 142
e 49 167
e 49 207
e 50 51
e 50 52
e 50 53
e 50 54
e 50 55
e 50 56
e 50 57
e 50 84
e 50 95
e 50 110
e 50 120
e 50 131
e 50 145
e 50 157
e 50 169
e 50 184
e 50 199
e 51 52
e 51 53
e 51 54
e 51 55
e 51 56
e 51 57
e 51 73
e 51 85
e 51 96
e 51 121
e 51 170
e 51 185
e 52 53
e 52 54
e 52 55
e 52 56
e 52 57
e 52 74
e 52 97
e 52 132
e 52 146
e 52 158
e 52 186
e 52 200
e 53 54
e 53 55
e 53 56
e 53 57
e 53 62
e 53 75
e 53 98
e 53 122
e 53 133
e 53 147
e 53 159
e 53 171
e 53 187
e 53 209
e 54 55
e 54 56
e 54 57
e 54 64
e 54 77
e 54 101
e 54 111
e 54 124
e 54 136
e 54 149
e 54 173
e 54 190
e 54 202
e 54 212
e 55 56
e 55 57
e 55 78
e 55 88
e 55 103
e 55 137
e 55 151
e 55 163
e 55 175
e 55 192
e 55 204
e 55 214
e 56 57
e 56 66
e 56 113
e 56 126
e 56 177
e 56 216
e 57 67
e 57 90
e 57 114
e 57 139
e 57 153
e 57 165
e 57 178
e 57 194
e 57 205
e 57 217
e 58 59
e 58 60
e 58 61
e 58 62
e 58 63
e 58 64
e 58 65
e 58 66
e 58 67
e 58 68
e 58 80
e 58 91
e 58 105
e 58 115
e 58 127
e 58 140
e 58 154
e 58 179
e 58 206
e 59 60
e 59 61
e 59 62
e 59 63
e 59 64
e 59 65
e 59 66
e 59 67
e 59 106
e 59 116
e 59 128
e 59 141
e 59 166
e 59 180
e 59 195
e 60 61
e 60 62
e 60 63
e 60 64
e 60 65
e 60 66
e 60 67
e 60 70
e 60 82
e 60 92
e 60 108
e 60 117
e 60 143
e 60 155
e 60 181
e 60 196
e 60 208
e 61 62
e 61 63
e 61 64
e 61 65
e 61 66
e 61 67
e 61 71
e 61 83
e 61 93
e 61 118
e 61 130
e 61 156
e 61 168
e 61 182
e 61 197
e 62 63
e 62 64
e 62 65
e 62 66
e 62 67
e 62 75
e 62 98
e 62 122
e 62 133
e 62 147
e 62 159
e 62 171
e 62 187
e 62 209
e 63 64
e 63 65
e 63 66
e 63 67
e 63 76
e 63 86
e 63 99
e 63 134
e 63 148
e 63 160
e 63 188
e 63 210
e 64 65
e 64 66
e 64 67
e 64 77
e 64 101
e 64 111
e 64 124
e 64 136
e 64 149
e 64 173
e 64 190
e 64 202
e 64 212
e 65 66
e 65 67
e 65 102
e 65 125
e 65 150
e 65 162
e 65 174
e 65 191
e 65 203
e 65 213
e 66 67
e 66 113
e 66 126
e 66 177
e 66 216
e 67 90
e 67 114
e 67 139
e 67 153
e 67 165
e 67 178
e 67 194
e 67 205
e 67 217
e 68 69
e 68 70
e 68 71
e 68 72
e 68 73
e 68 74
e 68 75
e 68 76
e 68 77
e 68 78
e 68 79
e 68 80
e 68 91
e 68 105
e 68 115
e 68 127
e 68 140
e 68 154
e 68 179
e 68 206
e 69 70
e 69 71
e 69 72
e 69 73
e 69 74
e 69 75
e 69 76
e 69 77
e 69 78
e 69 79
e 69 81
e 69 107
e 69 129
e 69 142
e 69 167
e 69 207
e 70 71
e 70 72
e 70 73
e 70 74
e 70 75
e 70 76
e 70 77
e 70 78
e 70 79
e 70 82
e 70 92
e 70 108
e 70 117
e 70 143
e 70 155
e 70 181
e 70 196
e 70 208
e 71 72
e 71 73
e 71 74
e 71 75
e 71 76
e 71 77
e 71 78
e 71 79
e 71 83
e 71 93
e 71 118
e 71 130
e 71 156
e 71 168
e 71 182
e 71 197
e 72 73
e 72 74
e 72 75
e 72 76
e 72 77
e 72 78
e 72 79
e 72 94
e 72 109
e 72 119
e 72 144
e 72 183
e 72 198
e 73 74
e 73 75
e 73 76
e 73 77
e 73 78
e 73 79
e 73 85
e 73 96
e 73 121
e 73 170
e 73 185
e 74 75
e 74 76
e 74 77
e 74 78
e 74 79
e 74 97
e 74 132
e 74 146
e 74 158
e 74 186
e 74 200
e 75 76
e 75 77
e 75 78
e 75 79
e 75 98
e 75 122
e 75 133
e 75 147
e 75 159
e 75 171
e 75 187
e 75 209
e 76 77
e 76 78
e 76 79
e 76 86
e 76 99
e 76 134
e 76 148
e 76 160
e 76 188
e 76 210
e 77 78
e 77 79
e 77 101
e 77 111
e 77 124
e 77 136
e 77 149
e 77 173
e 77 190
e 77 202
e 77 212
e 78 79
e 78 88
e 78 103
e 78 137
e 78 151
e 78 163
e 78 175
e 78 192
e 78 204
e 78 214
e 79 89
e 79 104
e 79 112
e 79 138
e 79 152
e 79 164
e 79 176
e 79 193
e 79 215
e 80 81
e 80 82
e 80 83
e 80 84
e 80 85
e 80 86
e 80 87
e 80 88
e 80 89
e 80 90
e 80 91
e 80 105
e 80 115
e 80 127
e 80 140
e 80 154
e 80 179
e 80 206
e 81 82
e 81 83
e 81 84
e 81 85
e 81 86
e 81 87
e 81 88
e 81 89
e 81 90
e 81 107
e 81 129
e 81 142
e 81 167
e 81 207
e 82 83
e 82 84
e 82 85
e 82 86
e 82 87
e 82 88
e 82 89
e 82 90
e 82 92
e 82 108
e 82 117
e 82 143
e 82 155
e 82 181
e 82 196
e 82 208
e 83 84
e 83 85
e 83 86
e 83 87
e 83 88
e 83 89
e 83 90
e 83 93
e 83 118
e 83 130
e 83 156
e 83 168
e 83 182
e 83 197
e 84 85
e 84 86
e 84 87
e 84 88
e 84 89
e 84 90
e 84 95
e 84 110
e 84 120
e 84 131
e 84 145
e 84 157
e 84 169
e 84 184
e 84 199
e 85 86
e 85 87
e 85 88
e 85 89
e 85 90
e 85 96
e 85 121
e 85 170
e 85 185
e 86 87
e 86 88
e 86 89
e 86 90
e 86 99
e 86 134
e 86 148
e 86 160
e 86 188
e 86 210
e 87 88
e 87 89
e 87 90
e 87 100
e 87 123
e 87 135
e 87 161
e 87 172
e 87 189
e 87 201
e 87 211
e 88 89
e 88 90
e 88 103
e 88 137
e 88 151
e 88 163
e 88 175
e 88 192
e 88 204
e 88 214
e 89 90
e 89 104
e 89 112
e 89 138
e 89 152
e 89 164
e 89 176
e 89 193
e 89 215
e 90 114
e 90 139
e 90 153
e 90 165
e 90 178
e 90 194
e 90 205
e 90 217
e 91 92
e 91 93
e 91 94
e 91 95
e 91 96
e 91 97
e 91 98
e 91 99
e 91 100
e 91 101
e 91 102
e 91 103
e 91 104
e 91 105
e 91 115
e 91 127
e 91 140
e 91 154
e 91 179
e 91 206
e 92 93
e 92 94
e 92 95
e 92 96
e 92 97
e 92 98
e 92 99
e 92 100
e 92 101
e 92 102
e 92 103
e 92 104
e 92 108
e 92 117
e 92 143
e 92 155
e 92 181
e 92 196
e 92 208
e 93 94
e 93 95
e 93 96
e 93 97
e 93 98
e 93 99
e 93 100
e 93 101
e 93 102
e 93 103
e 93 104
e 93 118
e 93 130
e 93 156
e 93 168
e 93 182
e 93 197
e 94 95
e 94 96
e 94 97
e 94 98
e 94 99
e 94 100
e 94 101
e 94 102
e 94 103
e 94 104
e 94 109
e 94 119
e 94 144
e 94 183
e 94 198
e 95 96
e 95 97
e 95 98
e 95 99
e 95 100
e 95 101
e 95 102
e 95 103
e 95 104
e 95 110
e 95 120
e 95 131
e 95 145
e 95 157
e 95 169
e 95 184
e 95 199
e 96 97
e 96 98
e 96 99
e 96 100
e 96 101
e 96 102
e 96 103
e 96 104
e 96 121
e 96 170
e 96 185
e 97 98
e 97 99
e 97 100
e 97 101
e 97 102
e 97 103
e 97 104
e 97 132
e 97 146
e 97 158
e 97 186
e 97 200
e 98 99
e 98 100
e 98 101
e 98 102
e 98 103
e 98 104
e 98 122
e 98 133
e 98 147
e 98 159
e 98 171
e 98 187
e 98 209
e 99 100
e 99 101
e 99 102
e 99 103
e 99 104
e 99 134
e 99 148
e 99 160
e 99 188
e 99 210
e 100 101
e 100 102
e 100 103
e 100 104
e 100 123
e 100 135
e 100 161
e 100 172
e 100 189
e 100 201
e 100 211
e 101 102
e 101 103
e 101 104
e 101 111
e 101 124
e 101 136
e 101 149
e 101 173
e 101 190
e 101 202
e 101 212
e 102 103
e 102 104
e 102 125
e 102 150
e 102 162
e 102 174
e 102 191
e 102 203
e 102 213
e 103 104
e 103 137
e 103 151
e 103 163
e 103 175
e 103 192
e 103 204
e 103 214
e 104 112
e 104 138
e 104 152
e 104 164
e 104 176
e 104 193
e 104 215
e 105 106
e 105 107
e 105 108
e 105 109
e 105 110
e 105 111
e 105 112
e 105 113
e 105 114
e 105 115
e 105 127
e 105 140
e 105 154
e 105 179
e 105 206
e 106 107
e 106 108
e 106 109
e 106 110
e 106 111
e 106 112
e 106 113
e 106 114
e 106 116
e 106 128
e 106 141
e 106 166
e 106 180
e 106 195
e 107 108
e 107 109
e 107 110
e 107 111
e 107 112
e 107 113
e 107 114
e 107 129
e 107 142
e 107 167
e 107 207
e 108 109
e 108 110
e 108 111
e 108 112
e 108 113
e 108 114
e 108 117
e 108 143
e 108 155
e 108 181
e 108 196
e 108 208
e 109 110
e 109 111
e 109 112
e 109 113
e 109 114
e 109 119
e 109 144
e 109 183
e 109 198
e 110 111
e 110 112
e 110 113
e 110 114
e 110 120
e 110 131
e 110 145
e 110 157
e 110 169
e 110 184
e 110 199
e 111 112
e 111 113
e 111 114
e 111 124
e 111 136
e 111 149
e 111 173
e 111 190
e 111 202
e 111 212
e 112 113
e 112 114
e 112 138
e 112 152
e 112 164
e 112 176
e 112 193
e 112 215
e 113 114
e 113 126
e 113 177
e 113 216
e 114 139
e 114 153
e 114 165
e 114 178
e 114 194
e 114 205
e 114 217
e 115 116
e 115 117
e 115 118
e 115 119
e 115 120
e 115 121
e 115 122
e 115 123
e 115 124
e 115 125
e 115 126
e 115 127
e 115 140
e 115 154
e 115 179
e 115 206
e 116 117
e 116 118
e 116 119
e 116 120
e 116 121
e 116 122
e 116 123
e 116 124
e 116 125
e 116 126
e 116 128
e 116 141
e 116 166
e 116 180
e 116 195
e 117 118
e 117 119
e 117 120
e 117 121
e 117 122
e 117 123
e 117 124
e 117 125
e 117 126
e 117 143
e 117 155
e 117 181
e 117 196
e 117 208
e 118 119
e 118 120
e 118 121
e 118 122
e 118 123
e 118 124
e 118 125
e 118 126
e 118 130
e 118 156
e 118 168
e 118 182
e 118 197
e 119 120
e 119 121
e 119 122
e 119 123
e 119 124
e 119 125
e 119 126
e 119 144
e 119 183
e 119 198
e 120 121
e 120 122
e 120 123
e 120 124
e 120 125
e 120 126
e 120 131
e 120 145
e 120 157
e 120 169
e 120 184
e 120 199
e 121 122
e 121 123
e 121 124
e 121 125
e 121 126
e 121 170
e 121 185
e 122 123
e 122 124
e 122 125
e 122 126
e 122 133
e 122 147
e 122 159
e 122 171
e 122 187
e 122 209
e 123 124
e 123 125
e 123 126
e 123 135
e 123 161
e 123 172
e 123 189
e 123 201
e 123 211
e 124 125
e 124 126
e 124 136
e 124 149
e 124 173
e 124 190
e 124 202
e 124 212
e 125 126
e 125 150
e 125 162
e 125 174
e 125 191
e 125 203
e 125 213
e 126 177
e 126 216
e 127 128
e 127 129
e 127 130
e 127 131
e 127 132
e 127 133
e 127 134
e 127 135
e 127 136
e 127 137
e 127 138
e 127 139
e 127 140
e 127 154
e 127 179
e 127 206
e 128 129
e 128 130
e 128 131
e 128 132
e 128 133
e 128 134
e 128 135
e 128 136
e 128 137
e 128 138
e 128 139
e 128 141
e 128 166
e 128 180
e 128 195
e 129 130
e 129 131
e 129 132
e 129 133
e 129 134
e 129 135
e 129 136
e 129 137
e 129 138
e 129 139
e 129 142
e 129 167
e 129 207
e 130 131
e 130 132
e 130 133
e 130 134
e 130 135
e 130 136
e 130 137
e 130 138
e 130 139
e 130 156
e 130 168
e 130 182
e 130 197
e 131 132
e 131 133
e 131 134
e 131 135
e 131 136
e 131 137
e 131 138
e 131 139
e 131 145
e 131 157
e 131 169
e 131 184
e 131 199
e 132 133
e 132 134
e 132 135
e 132 136
e 132 137
e 132 138
e 132 139
e 132 146
e 132 158
e 132 186
e 132 200
e 133 134
e 133 135
e 133 136
e 133 137
e 133 138
e 133 139
e 133 147
e 133 159
e 133 171
e 133 187
e 133 209
e 134 135
e 134 136
e 134 137
e 134 138
e 134 139
e 134 148
e 134 160
e 134 188
e 134 210
e 135 136
e 135 137
e 135 138
e 135 139
e 135 161
e 135 172
e 135 189
e 135 201
e 135 211
e 136 137
e 136 138
e 136 139
e 136 149
e 136 173
e 136 190
e 136 202
e 136 212
e 137 138
e 137 139
e 137 151
e 137 163
e 137 175
e 137 192
e 137 204
e 137 214
e 138 139
e 138 152
e 138 164
e 138 176
e 138 193
e 138 215
e 139 153
e 139 165
e 139 178
e 139 194
e 139 205
e 139 217
e 140 141
e 140 142
e 140 143
e 140 144
e 140 145
e 140 146
e 140 147
e 140 148
e 140 149
e 140 150
e 140 151
e 140 152
e 140 153
e 140 154
e 140 179
e 140 206
e 141 142
e 141 143
e 141 144
e 141 145
e 141 146
e 141 147
e 141 148
e 141 149
e 141 150
e 141 151
e 141 152
e 141 153
e 141 166
e 141 180
e 141 195
e 142 143
e 142 144
e 142 145
e 142 146
e 142 147
e 142 148
e 142 149
e 142 150
e 142 151
e 142 152
e 142 153
e 142 167
e 142 207
e 143 144
e 143 145
e 143 146
e 143 147
e 143 148
e 143 149
e 143 150
e 143 151
e 143 152
e 143 153
e 143 155
e 143 181
e 143 196
e 143 208
e 144 145
e 144 146
e 144 147
e 144 148
e 144 149
e 144 150
e 144 151
e 144 152
e 144 153
e 144 183
e 144 198
e 145 146
e 145 147
e 145 148
e 145 149
e 145 150
e 145 151
e 145 152
e 145 153
e 145 157
e 145 169
e 145 184
e 145 199
e 146 147
e 146 148
e 146 149
e 146 150
e 146 151
e 146 152
e 146 153
e 146 158
e 146 186
e 146 200
e 147 148
e 147 149
e 147 150
e 147 151
e 147 152
e 147 153
e 147 159
e 147 171
e 147 187
e 147 209
e 148 149
e 148 150
e 148 151
e 148 152
e 148 153
e 148 160
e 148 188
e 148 210
e 149 150
e 149 151
e 149 152
e 149 153
e 149 173
e 149 190
e 149 202
e 149 212
e 150 151
e 150 152
e 150 153
e 150 162
e 150 174
e 150 191
e 150 203
e 150 213
e 151 152
e 151 153
e 151 163
e 151 175
e 151 192
e 151 204
e 151 214
e 152 153
e 152 164
e 152 176
e 152 193
e 152 215
e 153 165
e 153 178
e 153 194
e 153 205
e 153 217
e 154 155
e 154 156
e 154 157
e 154 158
e 154 159
e 154 160
e 154 161
e 154 162
e 154 163
e 154 164
e 154 165
e 154 179
e 154 206
e 155 156
e 155 157
e 155 158
e 155 159
e 155 160
e 155 161
e 155 162
e 155 163
e 155 164
e 155 165
e 155 181
e 155 196
e 155 208
e 156 157
e 156 158
e 156 159
e 156 160
e 156 161
e 156 162
e 156 163
e 156 164
e 156 165
e 156 168
e 156 182
e 156 197
e 157 158
e 157 159
e 157 160
e 157 161
e 157 162
e 157 163
e 157 164
e 157 165
e 157 169
e 157 184
e 157 199
e 158 159
e 158 160
e 158 161
e 158 162
e 158 163
e 158 164
e 158 165
e 158 186
e 158 200
e 159 160
e 159 161
e 159 162
e 159 163
e 159 164
e 159 165
e 159 171
e 159 187
e 159 209
e 160 161
e 160 162
e 160 163
e 160 164
e 160 165
e 160 188
e 160 210
e 161 162
e 161 163
e 161 164
e 161 165
e 161 172
e 161 189
e 161 201
e 161 211
e 162 163
e 162 164
e 162 165
e 162 174
e 162 191
e 162 203
e 162 213
e 163 164
e 163 165
e 163 175
e 163 192
e 163 204
e 163 214
e 164 165
e 164 176
e 164 193
e 164 215
e 165 178
e 165 194
e 165 205
e 165 217
e 166 167
e 166 168
e 166 169
e 166 170
e 166 171
e 166 172
e 166 173
e 166 174
e 166 175
e 166 176
e 166 177
e 166 178
e 166 180
e 166 195
e 167 168
e 167 169
e 167 170
e 167 171
e 167 172
e 167 173
e 167 174
e 167 175
e 167 176
e 167 177
e 167 178
e 167 207
e 168 169
e 168 170
e 168 171
e 168 172
e 168 173
e 168 174
e 168 175
e 168 176
e 168 177
e 168 178
e 168 182
e 168 197
e 169 170
e 169 171
e 169 172
e 169 173
e 169 174
e 169 175
e 169 176
e 169 177
e 169 178
e 169 184
e 169 199
e 170 171
e 170 172
e 170 173
e 170 174
e 170 175
e 170 176
e 170 177
e 170 178
e 170 185
e 171 172
e 171 173
e 171 174
e 171 175
e 171 176
e 171 177
e 171 178
e 171 187
e 171 209
e 172 173
e 172 174
e 172 175
e 172 176
e 172 177
e 172 178
e 172 189
e 172 201
e 172 211
e 173 174
e 173 175
e 173 176
e 173 177
e 173 178
e 173 190
e 173 202
e 173 212
e 174 175
e 174 176
e 174 177
e 174 178
e 174 191
e 174 203
e 174 213
e 175 176
e 175 177
e 175 178
e 175 192
e 175 204
e 175 214
e 176 177
e 176 178
e 176 193
e 176 215
e 177 178
e 177 216
e 178 194
e 178 205
e 178 217
e 179 180
e 179 181
e 179 182
e 179 183
e 179 184
e 179 185
e 179 186
e 179 187
e 179 188
e 179 189
e 179 190
e 179 191
e 179 192
e 179 193
e 179 194
e 179 206
e 180 181
e 180 182
e 180 183
e 180 184
e 180 185
e 180 186
e 180 187
e 180 188
e 180 189
e 180 190
e 180 191
e 180 192
e 180 193
e 180 194
e 180 195
e 181 182
e 181 183
e 181 184
e 181 185
e 181 186
e 181 187
e 181 188
e 181 189
e 181 190
e 181 191
e 181 192
e 181 193
e 181 194
e 181 196
e 181 208
e 182 183
e 182 184
e 182 185
e 182 186
e 182 187
e 182 188
e 182 189
e 182 190
e 182 191
e 182 192
e 182 193
e 182 194
e 182 197
e 183 184
e 183 185
e 183 186
e 183 187
e 183 188
e 183 189
e 183 190
e 183 191
e 183 192
e 183 193
e 183 194
e 183 198
e 184 185
e 184 186
e 184 187
e 184 188
e 184 189
e 184 190
e 184 191
e 184 192
e 184 193
e 184 194
e 184 199
e 185 186
e 185 187
e 185 188
e 185 189
e 185 190
e 185 191
e 185 192
e 185 193
e 185 194
e 186 187
e 186 188
e 186 189
e 186 190
e 186 191
e 186 192
e 186 193
e 186 194
e 186 200
e 187 188
e 187 189
e 187 190
e 187 191
e 187 192
e 187 193
e 187 194
e 187 209
e 188 189
e 188 190
e 188 191
e 188 192
e 188 193
e 188 194
e 188 210
e 189 190
e 189 191
e 189 192
e 189 193
e 189 194
e 189 201
e 189 211
e 190 191
e 190 192
e 190 193
e 190 194
e 190 202
e 190 212
e 191 192
e 191 193
e 191 194
e 191 203
e 191 213
e 192 193
e 192 194
e 192 204
e 192 214
e 193 194
e 193 215
e 194 205
e 194 217
e 195 196
e 195 197
e 195 198
e 195 199
e 195 200
e 195 201
e 195 202
e 195 203
e 195 204
e 195 205
e 196 197
e 196 198
e 196 199
e 196 200
e 196 201
e 196 202
e 196 203
e 196 204
e 196 205
e 196 208
e 197 198
e 197 199
e 197 200
e 197 201
e 197 202
e 197 203
e 197 204
e 197 205
e 198 199
e 198 200
e 198 201
e 198 202
e 198 203
e 198 204
e 198 205
e 199 200
e 199 201
e 199 202
e 199 203
e 199 204
e 199 205
e 200 201
e 200 202
e 200 203
e 200 204
e 200 205
e 201 202
e 201 203
e 201 204
e 201 205
e 201 211
e 202 203
e 202 204
e 202 205
e 202 212
e 203 204
e 203 205
e 203 213
e 204 205
e 204 214
e 205 217
e 206 207
e 206 208
e 206 209
e 206 210
e 206 211
e 206 212
e 206 213
e 206 214
e 206 215
e 206 216
e 206 217
e 207 208
e 207 209
e 207 210
e 207 211
e 207 212
e 207 213
e 207 214
e 207 215
e 207 216
e 207 217
e 208 209
e 208 210
e 208 211
e 208 212
e 208 213
e 208 214
e 208 215
e 208 216
e 208 217
e 209 210
e 209 211
e 209 212
e 209 213
e 209 214
e 209 215
e 209 216
e 209 217
e 210 211
e 210 212
e 210 213
e 210 214
e 210 215
e 210 216
e 210 217
e 211 212
e 211 213
e 211 214
e 211 215
e 211 216
e 211 217
e 212 213
e 212 214
e 212 215
e 212 216
e 212 217
e 213 214
e 213 215
e 213 216
e 213 217
e 214 215
e 214 216
e 214 217
e 215 216
e 215 217
e 216 217
